NAME
* Written by MOSEK version 6.0.0.137
OBJSENSE
    MIN
ROWS
 N  obj
 E  c1
 E  c2
 E  c3
 E  c4
 E  c5
 E  c6
 E  c7
 E  c8
 E  c9
 E  c10
 E  c11
 E  c12
 E  c13
 E  c14
 E  c15
 E  c16
 E  c17
 E  c18
 E  c19
 E  c20
 E  c21
 E  c22
 E  c23
 E  c24
 E  c25
 E  c26
 E  c27
COLUMNS
    x1        obj       1.54e+02
    x1        c1        1
    x1        c2        6
    x1        c3        7
    x1        c4        3
    x1        c5        3
    x1        c26       4
    x1        c27       5
    x2        obj       1.2e+02
    x2        c2        4
    x2        c3        4
    x2        c4        6
    x2        c5        6
    x2        c27       3
    x3        obj       72
    x3        c2        3
    x3        c3        4
    x3        c4        1
    x3        c5        2
    x3        c27       3
    x4        obj       1.48e+02
    x4        c2        7
    x4        c3        4
    x4        c4        9
    x4        c5        4
    x4        c27       6
    x5        obj       1.12e+02
    x5        c2        4
    x5        c3        5
    x5        c4        3
    x5        c5        4
    x5        c27       5
    x6        obj       89
    x6        c2        4
    x6        c3        3
    x6        c4        3
    x6        c5        3
    x6        c27       4
    x7        obj       1.46e+02
    x7        c2        2
    x7        c3        4
    x7        c4        11
    x7        c5        7
    x7        c27       4
    x8        obj       1.37e+02
    x8        c2        4
    x8        c3        2
    x8        c4        8
    x8        c5        6
    x8        c27       8
    x9        obj       1.51e+02
    x9        c2        9
    x9        c3        3
    x9        c4        5
    x9        c5        8
    x9        c27       8
    x10       obj       1.14e+02
    x10       c2        3
    x10       c3        4
    x10       c4        4
    x10       c5        6
    x10       c27       5
    x11       obj       1.25e+02
    x11       c6        1
    x11       c7        14
    x11       c8        4
    x11       c9        2
    x11       c10       5
    x11       c26       4
    x11       c27       5
    x12       obj       98
    x12       c7        7
    x12       c8        5
    x12       c9        5
    x12       c10       9
    x12       c27       2
    x13       obj       100
    x13       c7        6
    x13       c8        4
    x13       c9        6
    x13       c10       4
    x13       c27       6
    x14       obj       70
    x14       c7        7
    x14       c8        3
    x14       c9        4
    x14       c10       5
    x14       c27       2
    x15       obj       1.12e+02
    x15       c7        4
    x15       c8        6
    x15       c9        6
    x15       c10       6
    x15       c27       7
    x16       obj       84
    x16       c7        8
    x16       c8        3
    x16       c9        2
    x16       c10       4
    x16       c27       6
    x17       obj       1.18e+02
    x17       c7        7
    x17       c8        3
    x17       c9        8
    x17       c10       7
    x17       c27       8
    x18       obj       86
    x18       c7        8
    x18       c8        5
    x18       c9        2
    x18       c10       7
    x18       c27       4
    x19       obj       1.28e+02
    x19       c7        8
    x19       c8        10
    x19       c9        3
    x19       c10       9
    x19       c27       4
    x20       obj       95
    x20       c7        6
    x20       c8        2
    x20       c9        4
    x20       c10       7
    x20       c27       9
    x21       obj       1.23e+02
    x21       c11       1
    x21       c12       3
    x21       c13       4
    x21       c14       4
    x21       c15       8
    x21       c26       9
    x21       c27       5
    x22       obj       1.03e+02
    x22       c12       8
    x22       c13       6
    x22       c14       2
    x22       c15       3
    x22       c27       6
    x23       obj       1.03e+02
    x23       c12       2
    x23       c13       7
    x23       c14       5
    x23       c15       5
    x23       c27       6
    x24       obj       1.13e+02
    x24       c12       7
    x24       c13       5
    x24       c14       6
    x24       c15       7
    x24       c27       5
    x25       obj       76
    x25       c12       4
    x25       c13       5
    x25       c14       1
    x25       c15       4
    x25       c27       5
    x26       obj       86
    x26       c12       2
    x26       c13       9
    x26       c14       2
    x26       c15       8
    x26       c27       1
    x27       obj       1.01e+02
    x27       c12       5
    x27       c13       4
    x27       c14       4
    x27       c15       5
    x27       c27       8
    x28       obj       1.16e+02
    x28       c12       5
    x28       c13       5
    x28       c14       5
    x28       c15       4
    x28       c27       8
    x29       obj       1.12e+02
    x29       c12       3
    x29       c13       5
    x29       c14       10
    x29       c15       4
    x29       c27       5
    x30       obj       1.04e+02
    x30       c12       5
    x30       c13       6
    x30       c14       1
    x30       c15       8
    x30       c27       7
    x31       obj       1.23e+02
    x31       c16       1
    x31       c17       3
    x31       c18       3
    x31       c19       4
    x31       c20       7
    x31       c26       3
    x31       c27       5
    x32       obj       1.12e+02
    x32       c17       4
    x32       c18       5
    x32       c19       6
    x32       c20       4
    x32       c27       8
    x33       obj       100
    x33       c17       4
    x33       c18       6
    x33       c19       5
    x33       c20       4
    x33       c27       4
    x34       obj       1.05e+02
    x34       c17       6
    x34       c18       3
    x34       c19       5
    x34       c20       7
    x34       c27       2
    x35       obj       1.19e+02
    x35       c17       5
    x35       c18       7
    x35       c19       7
    x35       c20       5
    x35       c27       4
    x36       obj       1.62e+02
    x36       c17       7
    x36       c18       11
    x36       c19       8
    x36       c20       6
    x36       c27       6
    x37       obj       1.2e+02
    x37       c17       5
    x37       c18       11
    x37       c19       6
    x37       c20       2
    x37       c27       5
    x38       obj       1.65e+02
    x38       c17       8
    x38       c18       10
    x38       c19       8
    x38       c20       7
    x38       c27       5
    x39       obj       67
    x39       c17       3
    x39       c18       8
    x39       c19       3
    x39       c20       2
    x40       obj       1.12e+02
    x40       c17       6
    x40       c18       2
    x40       c19       5
    x40       c20       5
    x40       c27       7
    x41       obj       1.86e+02
    x41       c21       1
    x41       c22       7
    x41       c23       6
    x41       c24       3
    x41       c25       7
    x41       c26       8
    x41       c27       3
    x42       obj       99
    x42       c22       5
    x42       c23       2
    x42       c24       2
    x42       c25       5
    x42       c27       3
    x43       obj       1.53e+02
    x43       c22       7
    x43       c23       3
    x43       c24       7
    x43       c25       5
    x43       c27       3
    x44       obj       1.68e+02
    x44       c22       12
    x44       c24       9
    x44       c25       3
    x44       c27       2
    x45       obj       1.68e+02
    x45       c22       4
    x45       c23       4
    x45       c24       7
    x45       c25       8
    x45       c27       6
    x46       obj       1.11e+02
    x46       c22       3
    x46       c23       4
    x46       c24       4
    x46       c25       3
    x46       c27       5
    x47       obj       1.6e+02
    x47       c22       6
    x47       c23       4
    x47       c24       8
    x47       c25       5
    x47       c27       4
    x48       obj       1.55e+02
    x48       c22       7
    x48       c23       4
    x48       c24       5
    x48       c25       5
    x48       c27       6
    x49       obj       1.47e+02
    x49       c22       3
    x49       c23       8
    x49       c24       5
    x49       c25       5
    x49       c27       5
    x50       obj       1.96e+02
    x50       c22       4
    x50       c23       6
    x50       c24       7
    x50       c25       7
    x50       c27       11
RHS
    rhs       c1        18
    rhs       c2        3.41e+02
    rhs       c3        3.02e+02
    rhs       c4        3.47e+02
    rhs       c5        3.06e+02
    rhs       c6        18
    rhs       c7        5.86e+02
    rhs       c8        2.79e+02
    rhs       c9        2.68e+02
    rhs       c10       3.92e+02
    rhs       c11       14
    rhs       c12       2.21e+02
    rhs       c13       2.71e+02
    rhs       c14       2.23e+02
    rhs       c15       3.23e+02
    rhs       c16       18
    rhs       c17       2.94e+02
    rhs       c18       4.25e+02
    rhs       c19       3.4e+02
    rhs       c20       3.21e+02
    rhs       c21       16
    rhs       c22       3.8e+02
    rhs       c23       2.48e+02
    rhs       c24       3.26e+02
    rhs       c25       3.42e+02
    rhs       c26       4.52e+02
    rhs       c27       1.526e+03
RANGES
BOUNDS
 LI bound     x1        0
 LI bound     x2        0
 LI bound     x3        0
 LI bound     x4        0
 LI bound     x5        0
 LI bound     x6        0
 LI bound     x7        0
 FR bound     x8
 FR bound     x9
 FR bound     x10
 LI bound     x11       0
 LI bound     x12       0
 LI bound     x13       0
 LI bound     x14       0
 LI bound     x15       0
 LI bound     x16       0
 LI bound     x17       0
 FR bound     x18
 FR bound     x19
 FR bound     x20
 LI bound     x21       0
 LI bound     x22       0
 LI bound     x23       0
 LI bound     x24       0
 LI bound     x25       0
 LI bound     x26       0
 LI bound     x27       0
 FR bound     x28
 FR bound     x29
 FR bound     x30
 LI bound     x31       0
 LI bound     x32       0
 LI bound     x33       0
 LI bound     x34       0
 LI bound     x35       0
 LI bound     x36       0
 LI bound     x37       0
 FR bound     x38
 FR bound     x39
 FR bound     x40
 LI bound     x41       0
 LI bound     x42       0
 LI bound     x43       0
 LI bound     x44       0
 LI bound     x45       0
 LI bound     x46       0
 LI bound     x47       0
 FR bound     x48
 FR bound     x49
 FR bound     x50
CSECTION      k1        0              QUAD
    x1
    x2
    x3
    x4
    x5
    x6
    x7
    x8
    x9
    x10
CSECTION      k2        0              QUAD
    x11
    x12
    x13
    x14
    x15
    x16
    x17
    x18
    x19
    x20
CSECTION      k3        0              QUAD
    x21
    x22
    x23
    x24
    x25
    x26
    x27
    x28
    x29
    x30
CSECTION      k4        0              QUAD
    x31
    x32
    x33
    x34
    x35
    x36
    x37
    x38
    x39
    x40
CSECTION      k5        0              QUAD
    x41
    x42
    x43
    x44
    x45
    x46
    x47
    x48
    x49
    x50
ENDATA
